
  22   10
  10   10   10   10   10   10   10   10   10   10

   0   0   0   0   0   0   0   0   0   0   0   3 2 4 13 
   1  10  10  10  10  10  10  10  10  10  10   3 8 6 3 
   3  10  10  10  10  10  10  10  10  10  10   4 21 12 7 5 
   7  10  10  10  10  10  10  10  10  10  10   8 21 20 19 18 17 16 15 10 
   3  10  10  10  10  10  10  10  10  10  10   6 20 19 18 17 16 9 
   3  10  10  10  10  10  10  10  10  10  10   5 19 18 17 15 14 
   2  10  10  10  10  10  10  10  10  10  10   4 18 16 15 11 
   5  10  10  10  10  10  10  10  10  10  10   4 17 16 15 14 
   8  10  10  10  10  10  10  10  10  10  10   2 15 11 
   6  10  10  10  10  10  10  10  10  10  10   1 11 
   2  10  10  10  10  10  10  10  10  10  10   1 14 
   3  10  10  10  10  10  10  10  10  10  10   1 14 
   6  10  10  10  10  10  10  10  10  10  10   1 15 
   3  10  10  10  10  10  10  10  10  10  10   1 22
   3  10  10  10  10  10  10  10  10  10  10   1 22
  10  10  10  10  10  10  10  10  10  10  10   1 22
   5  10  10  10  10  10  10  10  10  10  10   1 22
   3  10  10  10  10  10  10  10  10  10  10   1 22
   8  10  10  10  10  10  10  10  10  10  10   1 22
   6  10  10  10  10  10  10  10  10  10  10   1 22
  10  10  10  10  10  10  10  10  10  10  10   1 22
   0   0   0   0   0   0   0   0   0   0   0   0 
